Traveling Salesman Problem/TSP_generados/Aleatorio1620391071_13.tsp
NAME: Aleatorio1620391071_13.tsp
COMMENT: Randomly generated scenario
TYPE: TSP
DIMENSION: 13
EDGE_WEIGHT_TYPE: ATT
NODE_COORD_SECTION
1 32.32 44.51
2 1.75 47.69
3 37.63 39.36
4 48.81 20.47
5 27.31 24.11
6 30.93 40.34
7 42.48 45.21
8 2.44 12.37
9 46.42 8.89
10 18.34 37.24
11 2.62 23.52
12 3.96 6.7
13 22.1 43.06
