Traveling Salesman Problem/TSP_generados/Aleatorio1620391071_13.opt.tour
NAME: Aleatorio1620391071_13.opt.tour
COMMENT: Optimal solution for Aleatorio1620391071_13 (186.49224431879807)
TYPE: TOUR
DIMENSION: 13
TOUR_SECTION
1 6 13 10 2 11 8 12 5 9 4 3 7
-1
EOF
